16
4 9
4 2
4 11
4 15
4 8
4 0
4 10
4 1
4 3
4 12
4 5
4 14
4 7
9 10
9 12
9 0
9 14
9 5
9 7
9 3
9 11
9 13
9 15
9 2
9 6
3 13
3 6
3 15
3 8
3 10
3 1
3 5
3 14
3 7
3 2
3 0
13 6
13 12
13 14
13 8
13 5
13 11
13 0
13 1
13 7
13 10
13 15
0 5
0 14
0 11
0 6
0 15
0 8
0 1
0 10
0 12
5 12
5 14
5 7
5 1
5 6
5 2
5 15
5 8
11 14
11 2
11 6
11 8
11 7
11 1
11 15
11 10
11 12
14 1
14 10
14 12
14 2
14 6
14 8
2 6
2 15
2 8
2 1
2 10
2 12
2 7
6 15
6 10
6 12
6 1
6 7
7 10
7 12
7 1
7 15
7 8
10 1
10 15
10 8
15 12
15 8
12 1
12 8
8 1
